750
750 750
1 525 880
2 525 418
3 525 127
4 524 528
5 524 440
6 524 892
7 524 533
8 524 338
9 523 561
10 523 567
11 523 898
12 523 762
13 522 297
14 522 676
15 522 55
16 521 847
17 521 500
18 521 523
19 520 770
20 520 391
21 520 256
22 519 530
23 518 2
24 518 603
25 518 958
26 517 575
27 516 222
28 515 949
29 513 477
30 512 550
31 512 311
32 511 137
33 511 190
34 511 213
35 511 734
36 510 208
37 510 52
38 510 99
39 509 766
40 509 487
41 509 753
42 508 410
43 508 343
44 508 26
45 507 550
46 507 175
47 506 32
48 506 402
49 506 406
50 505 895
51 505 956
52 503 811
53 503 782
54 503 440
55 503 889
56 502 754
57 502 642
58 502 475
59 501 990
60 501 338
61 501 367
62 500 954
63 500 177
64 500 584
65 499 870
66 499 795
67 498 161
68 498 711
69 498 932
70 497 80
71 494 935
72 492 931
73 491 999
74 491 176
75 490 88
76 490 856
77 489 129
78 489 76
79 488 282
80 486 136
81 486 181
82 486 189
83 486 514
84 485 681
85 484 158
86 484 106
87 484 154
88 484 652
89 483 987
90 483 550
91 483 214
92 483 861
93 482 683
94 482 900
95 481 242
96 481 228
97 480 180
98 480 800
99 480 676
100 480 303
101 479 396
102 479 158
103 479 551
104 477 306
105 476 795
106 475 45
107 475 88
108 475 624
109 474 144
110 472 270
111 472 129
112 472 590
113 471 892
114 471 809
115 471 14
116 470 304
117 470 249
118 470 37
119 469 546
120 468 965
121 468 916
122 468 878
123 467 31
124 467 977
125 465 543
126 465 949
127 465 118
128 465 600
129 465 500
130 464 644
131 464 770
132 463 436
133 463 20
134 462 895
135 462 663
136 462 688
137 461 871
138 459 350
139 459 922
140 458 754
141 458 539
142 458 475
143 458 424
144 458 913
145 456 929
146 456 143
147 456 418
148 456 913
149 456 914
150 456 19
151 455 690
152 455 80
153 455 751
154 454 120
155 453 287
156 453 794
157 452 170
158 451 973
159 451 76
160 450 303
161 450 468
162 449 634
163 448 525
164 448 333
165 448 504
166 447 685
167 447 499
168 447 593
169 446 809
170 445 448
171 444 375
172 444 614
173 444 808
174 443 372
175 443 500
176 442 198
177 442 913
178 440 304
179 440 346
180 438 844
181 438 630
182 438 685
183 438 701
184 437 786
185 434 290
186 434 835
187 434 958
188 433 883
189 433 891
190 433 780
191 433 1
192 432 285
193 431 244
194 431 113
195 430 149
196 430 624
197 429 751
198 429 111
199 429 234
200 428 496
201 428 613
202 428 235
203 428 111
204 427 151
205 425 965
206 424 60
207 424 747
208 423 852
209 422 538
210 422 305
211 422 919
212 422 110
213 422 629
214 422 701
215 422 610
216 421 868
217 420 436
218 420 732
219 419 816
220 419 949
221 419 202
222 418 914
223 417 664
224 417 64
225 417 140
226 417 637
227 417 905
228 416 840
229 416 441
230 416 578
231 415 752
232 414 115
233 414 756
234 413 578
235 413 624
236 413 560
237 412 325
238 412 952
239 412 579
240 410 180
241 410 685
242 409 575
243 409 450
244 409 974
245 409 992
246 409 273
247 408 252
248 408 205
249 408 334
250 407 708
251 407 225
252 407 884
253 407 454
254 406 26
255 404 231
256 403 447
257 402 172
258 401 507
259 400 846
260 400 540
261 399 97
262 399 641
263 399 465
264 398 73
265 397 432
266 396 615
267 396 962
268 394 404
269 394 163
270 394 595
271 393 964
272 392 69
273 392 647
274 391 955
275 391 714
276 391 937
277 390 623
278 389 89
279 388 749
280 388 52
281 387 298
282 386 819
283 384 153
284 383 974
285 383 480
286 383 975
287 382 354
288 381 399
289 380 967
290 380 350
291 380 717
292 380 892
293 379 208
294 379 59
295 379 394
296 379 392
297 379 784
298 379 423
299 378 447
300 378 582
301 378 225
302 378 476
303 378 375
304 378 547
305 378 472
306 377 273
307 377 950
308 376 106
309 375 275
310 374 76
311 374 273
312 373 403
313 372 621
314 371 833
315 370 599
316 370 822
317 369 399
318 369 640
319 369 299
320 368 605
321 368 64
322 367 358
323 367 757
324 366 364
325 365 196
326 365 50
327 364 751
328 364 562
329 364 491
330 364 358
331 363 639
332 361 539
333 361 63
334 361 996
335 361 132
336 361 728
337 361 357
338 360 427
339 359 921
340 359 971
341 359 2
342 358 606
343 358 164
344 357 678
345 357 889
346 357 120
347 356 237
348 356 353
349 356 157
350 355 232
351 355 814
352 355 40
353 355 944
354 354 241
355 354 598
356 354 156
357 353 50
358 353 935
359 352 144
360 351 368
361 350 38
362 350 573
363 348 485
364 348 813
365 348 898
366 348 83
367 347 804
368 346 908
369 346 154
370 345 229
371 345 543
372 345 55
373 344 225
374 344 611
375 344 179
376 344 179
377 344 670
378 343 666
379 342 296
380 341 196
381 341 564
382 341 597
383 340 299
384 339 516
385 338 236
386 338 522
387 337 114
388 336 658
389 335 217
390 334 936
391 334 651
392 332 278
393 331 454
394 330 885
395 329 199
396 329 545
397 328 507
398 328 886
399 328 464
400 328 337
401 327 780
402 327 778
403 327 788
404 326 760
405 326 599
406 325 892
407 325 150
408 325 166
409 325 296
410 324 349
411 324 97
412 324 665
413 324 444
414 323 803
415 321 281
416 320 293
417 318 73
418 318 526
419 317 459
420 317 346
421 317 631
422 317 185
423 317 577
424 316 828
425 316 69
426 316 257
427 315 642
428 315 680
429 314 651
430 314 373
431 314 761
432 313 69
433 313 441
434 312 958
435 311 186
436 311 739
437 310 747
438 310 611
439 309 759
440 309 653
441 308 153
442 308 972
443 308 265
444 307 450
445 307 533
446 306 133
447 306 253
448 304 26
449 304 660
450 303 136
451 302 878
452 301 270
453 301 108
454 300 674
455 299 744
456 299 812
457 299 864
458 298 922
459 298 266
460 297 385
461 295 926
462 294 686
463 293 787
464 293 525
465 292 603
466 292 116
467 291 994
468 290 128
469 290 816
470 290 869
471 290 511
472 290 126
473 290 817
474 287 536
475 287 875
476 286 963
477 286 447
478 286 995
479 286 845
480 285 977
481 285 238
482 285 230
483 285 148
484 284 530
485 283 259
486 283 808
487 283 652
488 282 491
489 282 60
490 281 178
491 281 573
492 281 616
493 279 496
494 278 190
495 278 413
496 277 794
497 276 250
498 276 908
499 275 2
500 275 963
501 275 97
502 275 268
503 275 637
504 272 104
505 272 892
506 271 250
507 271 362
508 270 764
509 270 251
510 270 644
511 268 600
512 268 266
513 268 682
514 267 60
515 267 798
516 266 37
517 266 646
518 266 989
519 266 505
520 264 603
521 264 558
522 264 501
523 263 804
524 263 422
525 263 229
526 262 896
527 262 868
528 262 524
529 261 198
530 260 272
531 260 886
532 259 736
533 258 440
534 258 699
535 258 123
536 257 152
537 257 751
538 256 576
539 256 160
540 255 861
541 253 279
542 253 488
543 253 696
544 252 546
545 252 525
546 251 401
547 250 771
548 250 274
549 249 839
550 247 133
551 247 353
552 246 34
553 246 607
554 245 596
555 245 267
556 245 977
557 244 641
558 243 484
559 243 591
560 242 165
561 242 730
562 241 267
563 240 415
564 240 18
565 239 23
566 238 751
567 238 685
568 237 23
569 235 964
570 235 399
571 234 542
572 234 177
573 234 130
574 233 881
575 232 183
576 231 713
577 231 355
578 231 578
579 230 582
580 230 793
581 230 238
582 229 947
583 228 742
584 228 133
585 228 555
586 228 320
587 227 332
588 227 983
589 226 436
590 226 875
591 226 560
592 225 475
593 224 501
594 223 64
595 222 939
596 221 962
597 221 532
598 220 118
599 220 909
600 220 478
601 218 352
602 217 850
603 217 171
604 217 759
605 217 235
606 217 799
607 217 219
608 217 478
609 216 636
610 216 13
611 216 698
612 216 655
613 216 996
614 216 711
615 215 296
616 214 231
617 214 915
618 213 123
619 213 897
620 212 954
621 212 533
622 212 699
623 211 464
624 210 307
625 210 618
626 210 184
627 210 137
628 210 437
629 209 187
630 209 80
631 209 366
632 209 603
633 209 410
634 209 494
635 209 35
636 208 139
637 207 822
638 207 456
639 207 977
640 207 647
641 207 996
642 206 546
643 206 62
644 205 273
645 205 116
646 203 712
647 202 820
648 201 405
649 201 225
650 201 100
651 201 420
652 201 780
653 200 281
654 200 467
655 200 765
656 200 832
657 199 472
658 199 716
659 197 826
660 197 913
661 197 117
662 195 895
663 194 986
664 194 965
665 194 897
666 194 640
667 193 660
668 193 345
669 191 265
670 191 977
671 191 321
672 189 255
673 187 80
674 187 110
675 187 102
676 186 214
677 186 282
678 186 754
679 186 44
680 185 123
681 185 26
682 183 489
683 182 748
684 182 488
685 182 24
686 182 36
687 182 657
688 182 81
689 182 669
690 181 241
691 181 711
692 181 280
693 180 134
694 179 749
695 179 27
696 179 912
697 177 891
698 177 697
699 176 463
700 176 40
701 176 834
702 176 788
703 176 962
704 175 934
705 175 453
706 173 666
707 172 747
708 171 941
709 170 394
710 170 380
711 170 697
712 169 626
713 168 564
714 168 204
715 168 490
716 167 48
717 167 773
718 167 239
719 167 223
720 167 34
721 166 173
722 166 717
723 166 569
724 164 65
725 164 944
726 163 792
727 163 817
728 162 957
729 161 841
730 160 955
731 160 217
732 160 27
733 159 273
734 159 892
735 157 110
736 157 557
737 157 707
738 156 724
739 155 157
740 154 961
741 154 675
742 154 666
743 153 109
744 153 844
745 153 736
746 153 927
747 152 653
748 152 784
749 151 340
750 151 226
